NAME: CVRP_BENCHMARK
TYPE: CVRP
COMMENT: none
DIMENSION: 101
NUM_DAYS: 5
CAPACITY: 200
DISTANCE: 9999999
EDGE_WEIGHT_TYPE: FUNCTION
EDGE_WEIGHT_FORMAT: EUC_2D
NODE_COORD_TYPE: TWOD_COORDS
NODE_COORD_SECTION
1	5.000 18.000
2	5.000 20.000
3	2.000 16.000
4	2.000 18.000
5	2.000 15.000
6	0.000 19.000
7	0.000 16.000
8	-2.000 18.000
9	-2.000 20.000
10	-5.000 16.000
11	-5.000 19.000
12	-15.000 35.000
13	-18.000 25.000
14	-18.000 35.000
15	-20.000 30.000
16	-20.000 35.000
17	-22.000 25.000
18	-25.000 25.000
19	-25.000 30.000
20	-10.000 0.000
21	-10.000 2.000
22	-12.000 2.000
23	-12.000 5.000
24	-15.000 0.000
25	-15.000 2.000
26	-15.000 5.000
27	-17.000 2.000
28	-17.000 5.000
29	-20.000 0.000
30	-20.000 5.000
31	-30.000 -15.000
32	-30.000 -10.000
33	-32.000 -10.000
34	-32.000 -5.000
35	-35.000 -15.000
36	-35.000 -5.000
37	-38.000 -10.000
38	-40.000 -10.000
39	-40.000 -5.000
40	-5.000 -20.000
41	-5.000 -18.000
42	-7.000 -18.000
43	-7.000 -15.000
44	-8.000 -20.000
45	-10.000 -20.000
46	-10.000 -18.000
47	-10.000 -15.000
48	-12.000 -20.000
49	-12.000 -15.000
50	-14.000 -18.000
51	-15.000 -20.000
52	-15.000 -15.000
53	4.000 -45.000
54	2.000 -40.000
55	2.000 -35.000
56	0.000 -45.000
57	0.000 -35.000
58	-2.000 -45.000
59	-2.000 -35.000
60	-5.000 -45.000
61	10.000 -20.000
62	10.000 -15.000
63	10.000 -10.000
64	8.000 -20.000
65	8.000 -10.000
66	7.000 -15.000
67	7.000 -10.000
68	5.000 -20.000
69	5.000 -15.000
70	55.000 -20.000
71	55.000 -15.000
72	13.000 -20.000
73	52.000 -20.000
74	13.000 -15.000
75	5.000 15.000
76	50.000 -15.000
77	48.000 -20.000
78	48.000 -15.000
79	47.000 -20.000
80	45.000 -25.000
81	45.000 -15.000
82	35.000 5.000
83	32.000 5.000
84	30.000 8.000
85	28.000 10.000
86	26.000 5.000
87	25.000 5.000
88	25.000 10.000
89	23.000 8.000
90	20.000 5.000
91	20.000 10.000
92	27.000 35.000
93	25.000 35.000
94	25.000 32.000
95	22.000 30.000
96	20.000 30.000
97	20.000 35.000
98	18.000 25.000
99	15.000 30.000
100	15.000 35.000
DEMAND_SECTION
1 10 -1 -1 -1 -1
2 -1 30 -1 -1 30
3 -1 -1 -1 10 10
4 -1 -1 10 -1 -1
5 10 -1 10 10 10
6 -1 20 20 20 20
7 -1 -1 20 20 20
8 20 20 -1 -1 -1
9 10 -1 10 -1 10
10 -1 10 10 10 10
11 -1 10 10 10 10
12 20 20 20 -1 -1
13 -1 30 -1 30 -1
14 10 10 10 10 -1
15 40 -1 40 -1 -1
16 40 40 40 -1 40
17 -1 20 20 -1 20
18 20 20 20 -1 20
19 10 -1 10 10 10
20 -1 10 -1 10 10
21 -1 20 -1 20 -1
22 20 20 20 -1 20
23 10 -1 10 10 10
24 -1 10 -1 10 10
25 40 40 40 40 40
26 10 10 10 10 10
27 10 10 -1 -1 10
28 20 20 -1 20 -1
29 10 10 10 -1 -1
30 10 -1 10 10 10
31 20 20 20 20 20
32 30 30 30 30 30
33 40 40 40 40 40
34 -1 20 -1 20 20
35 -1 10 10 10 -1
36 -1 10 -1 10 -1
37 20 -1 20 20 20
38 -1 -1 -1 30 30
39 20 20 -1 20 -1
40 10 10 10 -1 -1
41 -1 10 -1 10 10
42 -1 -1 20 20 20
43 10 10 -1 10 10
44 10 10 10 10 10
45 10 -1 10 -1 10
46 30 30 -1 30 -1
47 10 10 10 -1 -1
48 -1 -1 -1 10 10
49 10 -1 10 10 -1
50 -1 -1 -1 10 10
51 10 10 10 10 10
52 10 -1 -1 10 -1
53 20 -1 20 20 -1
54 40 -1 -1 40 40
55 10 10 10 10 -1
56 30 30 30 30 30
57 40 40 40 -1 40
58 30 -1 30 -1 30
59 -1 10 -1 10 10
60 20 -1 20 20 20
61 10 -1 -1 10 -1
62 -1 -1 20 20 20
63 -1 -1 50 50 50
64 10 -1 10 10 10
65 10 10 10 10 -1
66 -1 10 10 -1 10
67 10 -1 10 -1 10
68 10 10 10 -1 10
69 -1 -1 10 10 10
70 30 -1 30 30 -1
71 -1 20 20 -1 -1
72 -1 -1 10 10 -1
73 -1 10 10 10 10
74 -1 50 50 50 -1
75 20 -1 20 20 20
76 10 10 10 10 -1
77 -1 10 10 -1 10
78 20 20 20 20 -1
79 10 -1 10 10 10
80 -1 -1 10 10 -1
81 30 30 30 30 30
82 20 20 -1 -1 20
83 10 10 -1 10 -1
84 -1 -1 20 20 -1
85 30 30 -1 -1 -1
86 -1 -1 -1 10 10
87 -1 20 -1 -1 20
88 30 30 30 -1 30
89 10 10 -1 -1 10
90 10 10 10 10 -1
91 -1 10 10 10 10
92 -1 20 20 20 20
93 40 40 40 -1 40
94 -1 10 10 10 -1
95 30 30 30 30 -1
96 10 10 -1 -1 -1
97 30 30 30 30 30
98 20 20 20 20 -1
99 10 -1 -1 -1 -1
100 20 -1 -1 20 20
SVC_TIME_SECTION
1	0.000000	0.000000	0.000000	0.000000	0.000000	
2	0.000000	0.000000	0.000000	0.000000	0.000000	
3	0.000000	0.000000	0.000000	0.000000	0.000000	
4	0.000000	0.000000	0.000000	0.000000	0.000000	
5	0.000000	0.000000	0.000000	0.000000	0.000000	
6	0.000000	0.000000	0.000000	0.000000	0.000000	
7	0.000000	0.000000	0.000000	0.000000	0.000000	
8	0.000000	0.000000	0.000000	0.000000	0.000000	
9	0.000000	0.000000	0.000000	0.000000	0.000000	
10	0.000000	0.000000	0.000000	0.000000	0.000000	
11	0.000000	0.000000	0.000000	0.000000	0.000000	
12	0.000000	0.000000	0.000000	0.000000	0.000000	
13	0.000000	0.000000	0.000000	0.000000	0.000000	
14	0.000000	0.000000	0.000000	0.000000	0.000000	
15	0.000000	0.000000	0.000000	0.000000	0.000000	
16	0.000000	0.000000	0.000000	0.000000	0.000000	
17	0.000000	0.000000	0.000000	0.000000	0.000000	
18	0.000000	0.000000	0.000000	0.000000	0.000000	
19	0.000000	0.000000	0.000000	0.000000	0.000000	
20	0.000000	0.000000	0.000000	0.000000	0.000000	
21	0.000000	0.000000	0.000000	0.000000	0.000000	
22	0.000000	0.000000	0.000000	0.000000	0.000000	
23	0.000000	0.000000	0.000000	0.000000	0.000000	
24	0.000000	0.000000	0.000000	0.000000	0.000000	
25	0.000000	0.000000	0.000000	0.000000	0.000000	
26	0.000000	0.000000	0.000000	0.000000	0.000000	
27	0.000000	0.000000	0.000000	0.000000	0.000000	
28	0.000000	0.000000	0.000000	0.000000	0.000000	
29	0.000000	0.000000	0.000000	0.000000	0.000000	
30	0.000000	0.000000	0.000000	0.000000	0.000000	
31	0.000000	0.000000	0.000000	0.000000	0.000000	
32	0.000000	0.000000	0.000000	0.000000	0.000000	
33	0.000000	0.000000	0.000000	0.000000	0.000000	
34	0.000000	0.000000	0.000000	0.000000	0.000000	
35	0.000000	0.000000	0.000000	0.000000	0.000000	
36	0.000000	0.000000	0.000000	0.000000	0.000000	
37	0.000000	0.000000	0.000000	0.000000	0.000000	
38	0.000000	0.000000	0.000000	0.000000	0.000000	
39	0.000000	0.000000	0.000000	0.000000	0.000000	
40	0.000000	0.000000	0.000000	0.000000	0.000000	
41	0.000000	0.000000	0.000000	0.000000	0.000000	
42	0.000000	0.000000	0.000000	0.000000	0.000000	
43	0.000000	0.000000	0.000000	0.000000	0.000000	
44	0.000000	0.000000	0.000000	0.000000	0.000000	
45	0.000000	0.000000	0.000000	0.000000	0.000000	
46	0.000000	0.000000	0.000000	0.000000	0.000000	
47	0.000000	0.000000	0.000000	0.000000	0.000000	
48	0.000000	0.000000	0.000000	0.000000	0.000000	
49	0.000000	0.000000	0.000000	0.000000	0.000000	
50	0.000000	0.000000	0.000000	0.000000	0.000000	
51	0.000000	0.000000	0.000000	0.000000	0.000000	
52	0.000000	0.000000	0.000000	0.000000	0.000000	
53	0.000000	0.000000	0.000000	0.000000	0.000000	
54	0.000000	0.000000	0.000000	0.000000	0.000000	
55	0.000000	0.000000	0.000000	0.000000	0.000000	
56	0.000000	0.000000	0.000000	0.000000	0.000000	
57	0.000000	0.000000	0.000000	0.000000	0.000000	
58	0.000000	0.000000	0.000000	0.000000	0.000000	
59	0.000000	0.000000	0.000000	0.000000	0.000000	
60	0.000000	0.000000	0.000000	0.000000	0.000000	
61	0.000000	0.000000	0.000000	0.000000	0.000000	
62	0.000000	0.000000	0.000000	0.000000	0.000000	
63	0.000000	0.000000	0.000000	0.000000	0.000000	
64	0.000000	0.000000	0.000000	0.000000	0.000000	
65	0.000000	0.000000	0.000000	0.000000	0.000000	
66	0.000000	0.000000	0.000000	0.000000	0.000000	
67	0.000000	0.000000	0.000000	0.000000	0.000000	
68	0.000000	0.000000	0.000000	0.000000	0.000000	
69	0.000000	0.000000	0.000000	0.000000	0.000000	
70	0.000000	0.000000	0.000000	0.000000	0.000000	
71	0.000000	0.000000	0.000000	0.000000	0.000000	
72	0.000000	0.000000	0.000000	0.000000	0.000000	
73	0.000000	0.000000	0.000000	0.000000	0.000000	
74	0.000000	0.000000	0.000000	0.000000	0.000000	
75	0.000000	0.000000	0.000000	0.000000	0.000000	
76	0.000000	0.000000	0.000000	0.000000	0.000000	
77	0.000000	0.000000	0.000000	0.000000	0.000000	
78	0.000000	0.000000	0.000000	0.000000	0.000000	
79	0.000000	0.000000	0.000000	0.000000	0.000000	
80	0.000000	0.000000	0.000000	0.000000	0.000000	
81	0.000000	0.000000	0.000000	0.000000	0.000000	
82	0.000000	0.000000	0.000000	0.000000	0.000000	
83	0.000000	0.000000	0.000000	0.000000	0.000000	
84	0.000000	0.000000	0.000000	0.000000	0.000000	
85	0.000000	0.000000	0.000000	0.000000	0.000000	
86	0.000000	0.000000	0.000000	0.000000	0.000000	
87	0.000000	0.000000	0.000000	0.000000	0.000000	
88	0.000000	0.000000	0.000000	0.000000	0.000000	
89	0.000000	0.000000	0.000000	0.000000	0.000000	
90	0.000000	0.000000	0.000000	0.000000	0.000000	
91	0.000000	0.000000	0.000000	0.000000	0.000000	
92	0.000000	0.000000	0.000000	0.000000	0.000000	
93	0.000000	0.000000	0.000000	0.000000	0.000000	
94	0.000000	0.000000	0.000000	0.000000	0.000000	
95	0.000000	0.000000	0.000000	0.000000	0.000000	
96	0.000000	0.000000	0.000000	0.000000	0.000000	
97	0.000000	0.000000	0.000000	0.000000	0.000000	
98	0.000000	0.000000	0.000000	0.000000	0.000000	
99	0.000000	0.000000	0.000000	0.000000	0.000000	
100	0.000000	0.000000	0.000000	0.000000	0.000000	
DEPOT_SECTION
0.0000 0.00000
-1
EOF

